     Program PWSCF v.7.3 starts on 10Mar2026 at 15:41:40 

     This program is part of the open-source Quantum ESPRESSO suite
     for quantum simulation of materials; please cite
         "P. Giannozzi et al., J. Phys.:Condens. Matter 21 395502 (2009);
         "P. Giannozzi et al., J. Phys.:Condens. Matter 29 465901 (2017);
         "P. Giannozzi et al., J. Chem. Phys. 152 154105 (2020);
          URL http://www.quantum-espresso.org", 
     in publications or presentations arising from this work. More details at
     http://www.quantum-espresso.org/quote

     Parallel version (MPI), running on    64 processors

     MPI processes distributed on     1 nodes
     118243 MiB available memory on the printing compute node when the environment starts

     Waiting for input...
     Reading input from standard input

     Current dimensions of program PWSCF are:
     Max number of different atomic species (ntypx) = 10
     Max number of k-points (npk) =  40000
     Max angular momentum in pseudopotentials (lmaxx) =  4
     Message from routine input:
     WARNING: "startingwfc" set to atomic+random may spoil restart
read_pp_mesh; mismatch in mesh size, discarding the one in header
read_pp_mesh; mismatch in mesh size, discarding the one in header
read_pp_mesh; mismatch in mesh size, discarding the one in header
read_pp_mesh; mismatch in mesh size, discarding the one in header
     file Fe.GGA-PBE-paw.UPF: wavefunction(s)  4S 3P 0P 3D 0D renormalized
     file O.GGA-PBE-paw.UPF: wavefunction(s)  0S 2P 0P renormalized
     file H.GGA-PBE-paw.UPF: wavefunction(s)  0S 0P renormalized
     file C.GGA-PBE-paw.UPF: wavefunction(s)  0S 0P renormalized

     R & G space division:  proc/nbgrp/npool/nimage =      64
     Subspace diagonalization in iterative solution of the eigenvalue problem:
     a serial algorithm will be used


     Parallelization info
     --------------------
     sticks:   dense  smooth     PW     G-vecs:    dense   smooth      PW
     Min         956     956    239               171747   171747   21469
     Max         958     958    240               171750   171750   21474
     Sum       61197   61197  15311             10991921 10991921 1374165

     Using Slab Decomposition



     bravais-lattice index     =            0
     lattice parameter (alat)  =      56.8956  a.u.
     unit-cell volume          =  180460.2187 (a.u.)^3
     number of atoms/cell      =           86
     number of atomic types    =            4
     number of electrons       =       218.00 (up: 110.00, down: 108.00)
     number of Kohn-Sham states=          110
     kinetic-energy cutoff     =      58.8000  Ry
     charge density cutoff     =     235.2000  Ry
     scf convergence threshold =      1.0E-06
     mixing beta               =       0.1000
     number of iterations used =            8  plain     mixing
     Exchange-correlation= SLA PW PBX PBC
                           (   1   4   3   4   0   0   0)
     Hubbard projectors: ortho-atomic
     Hubbard parameters of DFT+U (Dudarev formulation) in eV:
     U(Fe-3d) =  0.3000

     Internal variables: lda_plus_u =T, lda_plus_u_kind = 0

     celldm(1)=  56.895596  celldm(2)=   0.000000  celldm(3)=   0.000000
     celldm(4)=   0.000000  celldm(5)=   0.000000  celldm(6)=   0.000000

     crystal axes: (cart. coord. in units of alat)
               a(1) = (   1.000000   0.000000   0.000000 )  
               a(2) = (   0.000000   1.010150   0.000000 )  
               a(3) = (   0.000000   0.000000   0.969973 )  

     reciprocal axes: (cart. coord. in units 2 pi/alat)
               b(1) = (  1.000000  0.000000  0.000000 )  
               b(2) = (  0.000000  0.989952  0.000000 )  
               b(3) = (  0.000000  0.000000  1.030957 )  


     PseudoPot. # 1 for Fe read from file:
     /storage/nanosim/JTH_PBE/Fe.GGA-PBE-paw.UPF
     MD5 check sum: 6f5baa53d711f01c620cb678d0da43bc
     Pseudo is Projector augmented-wave + core cor, Zval = 16.0
     Generated using ATOMPAW code
     Shape of augmentation charge: SINC**2
     Using radial grid of 2342 points,  6 beta functions with: 
                l(1) =   0
                l(2) =   0
                l(3) =   1
                l(4) =   1
                l(5) =   2
                l(6) =   2
     Q(r) pseudized with 0 coefficients 


     PseudoPot. # 2 for O  read from file:
     /storage/nanosim/JTH_PBE/O.GGA-PBE-paw.UPF
     MD5 check sum: 736cbc7a9d52a6679d85906802ae4ba1
     Pseudo is Projector augmented-wave + core cor, Zval =  6.0
     Generated using ATOMPAW code
     Shape of augmentation charge: SINC**2
     Using radial grid of 2342 points,  4 beta functions with: 
                l(1) =   0
                l(2) =   0
                l(3) =   1
                l(4) =   1
     Q(r) pseudized with 0 coefficients 


     PseudoPot. # 3 for H  read from file:
     /storage/nanosim/JTH_PBE/H.GGA-PBE-paw.UPF
     MD5 check sum: 038daa4ccd301a845c8516faee96a7c5
     Pseudo is Projector augmented-wave + core cor, Zval =  1.0
     Generated using ATOMPAW code
     Shape of augmentation charge: SINC**2
     Using radial grid of 2342 points,  3 beta functions with: 
                l(1) =   0
                l(2) =   0
                l(3) =   1
     Q(r) pseudized with 0 coefficients 


     PseudoPot. # 4 for C  read from file:
     /storage/nanosim/JTH_PBE/C.GGA-PBE-paw.UPF
     MD5 check sum: 8a36bdb47dd4552c95d9f9e63f43b56b
     Pseudo is Projector augmented-wave + core cor, Zval =  4.0
     Generated using ATOMPAW code
     Shape of augmentation charge: SINC**2
     Using radial grid of 2342 points,  4 beta functions with: 
                l(1) =   0
                l(2) =   0
                l(3) =   1
                l(4) =   1
     Q(r) pseudized with 0 coefficients 


     atomic species   valence    mass     pseudopotential
     Fe               16.00    55.84500     Fe( 1.00)
     O                 6.00    16.00000     O ( 1.00)
     H                 1.00     1.00800     H ( 1.00)
     C                 4.00    12.01100     C ( 1.00)

     Starting magnetic structure 
     atomic species   magnetization
     Fe              0.062
     O               0.000
     H               0.000
     C               0.000

     No symmetry found



   Cartesian axes

     site n.     atom                  positions (alat units)
         1        Fe     tau(   1) = (   0.4901185   0.5436725   0.4568922  )
         2        Fe     tau(   2) = (   0.5098816   0.4664750   0.5130794  )
         3        O      tau(   3) = (   0.4788418   0.4813730   0.4590783  )
         4        O      tau(   4) = (   0.5330289   0.5754908   0.4316082  )
         5        O      tau(   5) = (   0.4427355   0.5773954   0.4485238  )
         6        C      tau(   6) = (   0.4576500   0.4521654   0.4278033  )
         7        C      tau(   7) = (   0.5326455   0.6076462   0.3974659  )
         8        C      tau(   8) = (   0.4012943   0.5808159   0.4704711  )
         9        C      tau(   9) = (   0.4852317   0.4099777   0.4240640  )
        10        H      tau(  10) = (   0.5185215   0.4174489   0.4118231  )
        11        H      tau(  11) = (   0.4696019   0.3869553   0.4007883  )
        12        H      tau(  12) = (   0.4879435   0.3935188   0.4562527  )
        13        C      tau(  13) = (   0.4111474   0.4408021   0.4440267  )
        14        H      tau(  14) = (   0.4127688   0.4274566   0.4776558  )
        15        H      tau(  15) = (   0.3960528   0.4161076   0.4221348  )
        16        H      tau(  16) = (   0.3898221   0.4700832   0.4441003  )
        17        C      tau(  17) = (   0.4559393   0.4757669   0.3831724  )
        18        H      tau(  18) = (   0.4372689   0.5067856   0.3855448  )
        19        H      tau(  19) = (   0.4396797   0.4547653   0.3584590  )
        20        H      tau(  20) = (   0.4894305   0.4832749   0.3713699  )
        21        C      tau(  21) = (   0.5807264   0.6110430   0.3816515  )
        22        H      tau(  22) = (   0.6023686   0.6208412   0.4090605  )
        23        H      tau(  23) = (   0.5838321   0.6356649   0.3551586  )
        24        H      tau(  24) = (   0.5920777   0.5789754   0.3690600  )
        25        C      tau(  25) = (   0.5174166   0.6521803   0.4162592  )
        26        H      tau(  26) = (   0.4835063   0.6495042   0.4287123  )
        27        H      tau(  27) = (   0.5184591   0.6780108   0.3907603  )
        28        H      tau(  28) = (   0.5391229   0.6622982   0.4435294  )
        29        C      tau(  29) = (   0.5029225   0.5936085   0.3589214  )
        30        H      tau(  30) = (   0.5139296   0.5617005   0.3455705  )
        31        H      tau(  31) = (   0.5042852   0.6180781   0.3321393  )
        32        H      tau(  32) = (   0.4685089   0.5906027   0.3698770  )
        33        C      tau(  33) = (   0.3978045   0.5492116   0.5098647  )
        34        H      tau(  34) = (   0.4025749   0.5147461   0.4998387  )
        35        H      tau(  35) = (   0.3651592   0.5520313   0.5254645  )
        36        H      tau(  36) = (   0.4227639   0.5571946   0.5349349  )
        37        C      tau(  37) = (   0.3650779   0.5709430   0.4364090  )
        38        H      tau(  38) = (   0.3684105   0.5932184   0.4079851  )
        39        H      tau(  39) = (   0.3321393   0.5756098   0.4509208  )
        40        H      tau(  40) = (   0.3674678   0.5368126   0.4244442  )
        41        C      tau(  41) = (   0.3969184   0.6287439   0.4864726  )
        42        H      tau(  42) = (   0.4234235   0.6367160   0.5099005  )
        43        H      tau(  43) = (   0.3650208   0.6339967   0.5029889  )
        44        H      tau(  44) = (   0.3992301   0.6516182   0.4584253  )
        45        O      tau(  45) = (   0.5211588   0.5287740   0.5108931  )
        46        O      tau(  46) = (   0.4669714   0.4346580   0.5383652  )
        47        O      tau(  47) = (   0.5572663   0.4327553   0.5214480  )
        48        C      tau(  48) = (   0.5423612   0.5579782   0.5421639  )
        49        C      tau(  49) = (   0.4673541   0.4025028   0.5725074  )
        50        C      tau(  50) = (   0.5987109   0.4293467   0.4995061  )
        51        C      tau(  51) = (   0.5147926   0.6001742   0.5458981  )
        52        H      tau(  52) = (   0.4815016   0.5927155   0.5581427  )
        53        H      tau(  53) = (   0.5304315   0.6231951   0.5691691  )
        54        H      tau(  54) = (   0.5120836   0.6166287   0.5137067  )
        55        C      tau(  55) = (   0.5888663   0.5693250   0.5259352  )
        56        H      tau(  56) = (   0.5872462   0.5826634   0.4923033  )
        57        H      tau(  57) = (   0.6039698   0.5940205   0.5478202  )
        58        H      tau(  58) = (   0.6101831   0.5400377   0.5258672  )
        59        C      tau(  59) = (   0.5440691   0.5343821   0.5867978  )
        60        H      tau(  60) = (   0.5627300   0.5033573   0.5844284  )
        61        H      tau(  61) = (   0.5603367   0.5553825   0.6115069  )
        62        H      tau(  62) = (   0.5105762   0.5268863   0.5986038  )
        63        C      tau(  63) = (   0.4192724   0.3991017   0.5883187  )
        64        H      tau(  64) = (   0.3976329   0.3893033   0.5609075  )
        65        H      tau(  65) = (   0.4161666   0.3744783   0.6148102  )
        66        H      tau(  66) = (   0.4079178   0.4311679   0.6009108  )
        67        C      tau(  67) = (   0.4825887   0.3579707   0.5537135  )
        68        H      tau(  68) = (   0.5164997   0.3606508   0.5412622  )
        69        H      tau(  69) = (   0.4815470   0.3321393   0.5792113  )
        70        H      tau(  70) = (   0.4608847   0.3478518   0.5264417  )
        71        C      tau(  71) = (   0.4970739   0.4165413   0.6110539  )
        72        H      tau(  72) = (   0.4860622   0.4484464   0.6244076  )
        73        H      tau(  73) = (   0.4957141   0.3920689   0.6378338  )
        74        H      tau(  74) = (   0.5314875   0.4195531   0.6000996  )
        75        C      tau(  75) = (   0.6022041   0.4609642   0.4601233  )
        76        H      tau(  76) = (   0.5974272   0.4954255   0.4701600  )
        77        H      tau(  77) = (   0.6348522   0.4581543   0.4445274  )
        78        H      tau(  78) = (   0.5772501   0.4529847   0.4350460  )
        79        C      tau(  79) = (   0.6349189   0.4392153   0.5335786  )
        80        H      tau(  80) = (   0.6315855   0.4169293   0.5619941  )
        81        H      tau(  81) = (   0.6678607   0.4345597   0.5190702  )
        82        H      tau(  82) = (   0.6325215   0.4733413   0.5455556  )
        83        C      tau(  83) = (   0.6030961   0.3814250   0.4834905  )
        84        H      tau(  84) = (   0.5765970   0.3734562   0.4600549  )
        85        H      tau(  85) = (   0.6349980   0.3761811   0.4669801  )
        86        H      tau(  86) = (   0.6007811   0.3585429   0.5115313  )

     number of k points=     1
                       cart. coord. in units 2pi/alat
        k(    1) = (   0.0000000   0.0000000   0.0000000), wk =   1.0000000

     Dense  grid: 10991921 G-vectors     FFT dimensions: ( 288, 288, 270)

     Estimated max dynamical RAM per process >       1.36 GB

     Estimated total dynamical RAM >      87.21 GB

     Atomic positions and unit cell read from directory:
     ./out/Fe2_tert-butoxide_6_LowSpin.save/
     Message from routine qexsd_readschema :
     xml data file ./out/Fe2_tert-butoxide_6_LowSpin.save/data-file-schema.xml not fo
     Nothing found: using input atomic positions and unit cell


     Check: negative core charge=   -0.000002
     Generating pointlists ...
     new r_m :   0.0242 (alat units)  1.3790 (a.u.) for type    1
     new r_m :   0.0193 (alat units)  1.1008 (a.u.) for type    2
     new r_m :   0.0149 (alat units)  0.8498 (a.u.) for type    3
     new r_m :   0.0149 (alat units)  0.8498 (a.u.) for type    4

     The initial density is read from file :
     ./out/Fe2_tert-butoxide_6_LowSpin.save/charge-density


     negative rho (up, down):  3.641E-02 3.402E-02

     STARTING HUBBARD OCCUPATIONS:

     =================== HUBBARD OCCUPATIONS ===================
     ------------------------ ATOM    1 ------------------------
     Tr[ns(  1)] (up, down, total) =   3.64686  2.74443  6.39129
     Atomic magnetic moment for atom   1 =   0.90243
     SPIN  1
     eigenvalues:
       0.337  0.414  0.953  0.970  0.973
     eigenvectors (columns):
      -0.286 -0.124  0.617 -0.404  0.599
       0.697  0.284 -0.006 -0.657 -0.044
      -0.258  0.279 -0.719 -0.184  0.552
      -0.473 -0.332 -0.192 -0.610 -0.507
      -0.376  0.846  0.254 -0.017 -0.278
     occupation matrix ns (before diag.):
       0.904  0.146 -0.019 -0.107 -0.013
       0.146  0.617  0.070  0.261  0.033
      -0.019  0.070  0.876 -0.029 -0.190
      -0.107  0.261 -0.029  0.767  0.044
      -0.013  0.033 -0.190  0.044  0.482
     SPIN  2
     eigenvalues:
       0.217  0.249  0.352  0.953  0.973
     eigenvectors (columns):
       0.882 -0.344 -0.118 -0.129 -0.271
      -0.431 -0.506 -0.375  0.087 -0.640
       0.080 -0.401 -0.093  0.802  0.426
      -0.169 -0.679  0.472 -0.435  0.314
      -0.038 -0.067 -0.783 -0.379  0.486
     occupation matrix ns (before diag.):
       0.291  0.134 -0.158 -0.023 -0.050
       0.134  0.560 -0.144 -0.193 -0.219
      -0.158 -0.144  0.834 -0.153 -0.056
      -0.023 -0.193 -0.153  0.476  0.189
      -0.050 -0.219 -0.056  0.189  0.585
     ------------------------ ATOM    2 ------------------------
     Tr[ns(  2)] (up, down, total) =   3.64407  2.75205  6.39612
     Atomic magnetic moment for atom   2 =   0.89202
     SPIN  1
     eigenvalues:
       0.337  0.414  0.950  0.971  0.973
     eigenvectors (columns):
      -0.271 -0.123  0.601 -0.348  0.655
       0.608  0.341 -0.111 -0.707  0.041
      -0.306  0.276 -0.704  0.014  0.578
      -0.550 -0.321 -0.230 -0.615 -0.403
      -0.401  0.830  0.279 -0.004 -0.268
     occupation matrix ns (before diag.):
       0.909  0.129 -0.024 -0.114 -0.016
       0.129  0.672  0.064  0.272 -0.003
      -0.024  0.064  0.859 -0.061 -0.201
      -0.114  0.272 -0.061  0.721  0.010
      -0.016 -0.003 -0.201  0.010  0.483
     SPIN  2
     eigenvalues:
       0.222  0.253  0.350  0.954  0.973
     eigenvectors (columns):
       0.866  0.371 -0.128 -0.128 -0.283
      -0.474  0.572 -0.360  0.057 -0.561
       0.091  0.374 -0.094  0.802  0.447
      -0.134  0.628  0.467 -0.450  0.408
      -0.014  0.006 -0.792 -0.366  0.489
     occupation matrix ns (before diag.):
       0.301  0.126 -0.164 -0.045 -0.057
       0.126  0.487 -0.144 -0.201 -0.185
      -0.164 -0.144  0.848 -0.126 -0.041
      -0.045 -0.201 -0.126  0.535  0.223
      -0.057 -0.185 -0.041  0.223  0.580

     Number of occupied Hubbard levels =   12.7874

     Atomic wfc used for Hubbard projectors are orthogonalized

     Starting wfcs are  546 randomized atomic wfcs
     Checking if some PAW data can be deallocated... 

     total cpu time spent up to now is      165.1 secs

     Self-consistent Calculation

     iteration #  1     ecut=    58.80 Ry     beta= 0.10
     Davidson diagonalization with overlap
     ethr =  1.00E-05,  avg # of iterations =  8.5

     =================== HUBBARD OCCUPATIONS ===================
     ------------------------ ATOM    1 ------------------------
     Tr[ns(  1)] (up, down, total) =   3.64738  2.74472  6.39210
     Atomic magnetic moment for atom   1 =   0.90265
     SPIN  1
     eigenvalues:
       0.337  0.414  0.953  0.970  0.973
     eigenvectors (columns):
      -0.289 -0.116  0.615 -0.361  0.628
       0.695  0.282 -0.005 -0.661 -0.003
      -0.265  0.287 -0.722 -0.152  0.551
      -0.475 -0.335 -0.182 -0.639 -0.469
      -0.371  0.844  0.259 -0.031 -0.286
     occupation matrix ns (before diag.):
       0.905  0.145 -0.021 -0.108 -0.016
       0.145  0.620  0.071  0.262  0.031
      -0.021  0.071  0.872 -0.029 -0.194
      -0.108  0.262 -0.029  0.765  0.047
      -0.016  0.031 -0.194  0.047  0.486
     SPIN  2
     eigenvalues:
       0.217  0.251  0.350  0.953  0.973
     eigenvectors (columns):
       0.888 -0.338 -0.119 -0.119 -0.261
      -0.421 -0.510 -0.371  0.094 -0.645
       0.072 -0.398 -0.083  0.801  0.432
      -0.164 -0.679  0.469 -0.441  0.310
      -0.042 -0.071 -0.788 -0.374  0.482
     occupation matrix ns (before diag.):
       0.285  0.131 -0.150 -0.022 -0.049
       0.131  0.565 -0.145 -0.193 -0.221
      -0.150 -0.145  0.838 -0.155 -0.053
      -0.022 -0.193 -0.155  0.478  0.187
      -0.049 -0.221 -0.053  0.187  0.579
     ------------------------ ATOM    2 ------------------------
     Tr[ns(  2)] (up, down, total) =   3.63742  2.74289  6.38031
     Atomic magnetic moment for atom   2 =   0.89452
     SPIN  1
     eigenvalues:
       0.333  0.411  0.950  0.970  0.973
     eigenvectors (columns):
      -0.270 -0.120  0.601 -0.348  0.656
       0.613  0.339 -0.104 -0.705  0.035
      -0.311  0.281 -0.707 -0.003  0.569
      -0.542 -0.330 -0.219 -0.617 -0.410
      -0.401  0.826  0.283 -0.007 -0.276
     occupation matrix ns (before diag.):
       0.910  0.129 -0.025 -0.113 -0.017
       0.129  0.667  0.067  0.274  0.000
      -0.025  0.067  0.855 -0.059 -0.206
      -0.113  0.274 -0.059  0.722  0.015
      -0.017  0.000 -0.206  0.015  0.484
     SPIN  2
     eigenvalues:
       0.219  0.251  0.347  0.953  0.972
     eigenvectors (columns):
       0.874  0.362 -0.124 -0.115 -0.276
      -0.458  0.573 -0.361  0.076 -0.571
       0.085  0.373 -0.084  0.794  0.465
      -0.134  0.634  0.465 -0.461  0.388
      -0.015  0.015 -0.794 -0.371  0.481
     occupation matrix ns (before diag.):
       0.292  0.124 -0.158 -0.042 -0.056
       0.124  0.496 -0.145 -0.203 -0.190
      -0.158 -0.145  0.850 -0.131 -0.039
      -0.042 -0.203 -0.131  0.529  0.219
      -0.056 -0.190 -0.039  0.219  0.575

     Number of occupied Hubbard levels =   12.7724

     Threshold (ethr) on eigenvalues was too large:
     Diagonalizing with lowered threshold

     Davidson diagonalization with overlap
     ethr =  1.14E-07,  avg # of iterations =  3.0

     negative rho (up, down):  3.641E-02 3.402E-02

     total cpu time spent up to now is      431.0 secs

     total energy              =   -1414.91320646 Ry
     estimated scf accuracy    <       0.00023342 Ry

     total magnetization       =     2.00 Bohr mag/cell
     absolute magnetization    =     3.05 Bohr mag/cell

     iteration #  2     ecut=    58.80 Ry     beta= 0.10
     Davidson diagonalization with overlap
     ethr =  1.07E-07,  avg # of iterations =  5.5

     negative rho (up, down):  3.641E-02 3.402E-02

     total cpu time spent up to now is      503.8 secs

     total energy              =   -1414.91324148 Ry
     estimated scf accuracy    <       0.00004065 Ry

     total magnetization       =     2.00 Bohr mag/cell
     absolute magnetization    =     3.05 Bohr mag/cell

     iteration #  3     ecut=    58.80 Ry     beta= 0.10
     Davidson diagonalization with overlap
     ethr =  1.86E-08,  avg # of iterations =  4.0

     negative rho (up, down):  3.641E-02 3.403E-02

     total cpu time spent up to now is      576.6 secs

     total energy              =   -1414.91327899 Ry
     estimated scf accuracy    <       0.00003072 Ry

     total magnetization       =     2.00 Bohr mag/cell
     absolute magnetization    =     3.05 Bohr mag/cell

     iteration #  4     ecut=    58.80 Ry     beta= 0.10
     Davidson diagonalization with overlap
     ethr =  1.41E-08,  avg # of iterations =  5.5

     negative rho (up, down):  3.641E-02 3.403E-02

     total cpu time spent up to now is      656.2 secs

     total energy              =   -1414.91328856 Ry
     estimated scf accuracy    <       0.00002516 Ry

     total magnetization       =     2.00 Bohr mag/cell
     absolute magnetization    =     3.05 Bohr mag/cell

     iteration #  5     ecut=    58.80 Ry     beta= 0.10
     Davidson diagonalization with overlap
     ethr =  1.15E-08,  avg # of iterations =  1.0

     negative rho (up, down):  3.641E-02 3.403E-02

     total cpu time spent up to now is      723.0 secs

     total energy              =   -1414.91333039 Ry
     estimated scf accuracy    <       0.00002440 Ry

     total magnetization       =     2.00 Bohr mag/cell
     absolute magnetization    =     3.05 Bohr mag/cell

     iteration #  6     ecut=    58.80 Ry     beta= 0.10
     Davidson diagonalization with overlap
     ethr =  1.12E-08,  avg # of iterations =  5.0

     negative rho (up, down):  3.642E-02 3.403E-02

     total cpu time spent up to now is      806.4 secs

     total energy              =   -1414.91339538 Ry
     estimated scf accuracy    <       0.00001986 Ry

     total magnetization       =     2.00 Bohr mag/cell
     absolute magnetization    =     3.05 Bohr mag/cell

     iteration #  7     ecut=    58.80 Ry     beta= 0.10
     Davidson diagonalization with overlap
     ethr =  9.11E-09,  avg # of iterations =  5.5

     negative rho (up, down):  3.642E-02 3.404E-02

     total cpu time spent up to now is      893.1 secs

     total energy              =   -1414.91346420 Ry
     estimated scf accuracy    <       0.00001646 Ry

     total magnetization       =     2.00 Bohr mag/cell
     absolute magnetization    =     3.06 Bohr mag/cell

     iteration #  8     ecut=    58.80 Ry     beta= 0.10
     Davidson diagonalization with overlap
     ethr =  7.55E-09,  avg # of iterations =  6.0

     negative rho (up, down):  3.642E-02 3.404E-02

     total cpu time spent up to now is      989.4 secs

     total energy              =   -1414.91351216 Ry
     estimated scf accuracy    <       0.00001811 Ry

     total magnetization       =     2.00 Bohr mag/cell
     absolute magnetization    =     3.06 Bohr mag/cell

     iteration #  9     ecut=    58.80 Ry     beta= 0.10
     Davidson diagonalization with overlap
     ethr =  7.55E-09,  avg # of iterations =  6.0

     negative rho (up, down):  3.642E-02 3.404E-02

     total cpu time spent up to now is     1079.9 secs

     total energy              =   -1414.91358452 Ry
     estimated scf accuracy    <       0.00000743 Ry

     total magnetization       =     2.00 Bohr mag/cell
     absolute magnetization    =     3.06 Bohr mag/cell

     iteration # 10     ecut=    58.80 Ry     beta= 0.10
     Davidson diagonalization with overlap
     ethr =  3.41E-09,  avg # of iterations =  5.0

     negative rho (up, down):  3.642E-02 3.404E-02

     total cpu time spent up to now is     1151.6 secs

     total energy              =   -1414.91360127 Ry
     estimated scf accuracy    <       0.00000650 Ry

     total magnetization       =     2.00 Bohr mag/cell
     absolute magnetization    =     3.07 Bohr mag/cell

     iteration # 11     ecut=    58.80 Ry     beta= 0.10
     Davidson diagonalization with overlap
     ethr =  2.98E-09,  avg # of iterations =  5.0

     negative rho (up, down):  3.642E-02 3.404E-02

     total cpu time spent up to now is     1229.6 secs

     total energy              =   -1414.91362152 Ry
     estimated scf accuracy    <       0.00000649 Ry

     total magnetization       =     2.00 Bohr mag/cell
     absolute magnetization    =     3.07 Bohr mag/cell

     iteration # 12     ecut=    58.80 Ry     beta= 0.10
     Davidson diagonalization with overlap
     ethr =  2.98E-09,  avg # of iterations =  5.5

     negative rho (up, down):  3.642E-02 3.404E-02

     total cpu time spent up to now is     1320.4 secs

     total energy              =   -1414.91364320 Ry
     estimated scf accuracy    <       0.00000749 Ry

     total magnetization       =     2.00 Bohr mag/cell
     absolute magnetization    =     3.07 Bohr mag/cell

     iteration # 13     ecut=    58.80 Ry     beta= 0.10
     Davidson diagonalization with overlap
     ethr =  2.98E-09,  avg # of iterations =  6.0

     negative rho (up, down):  3.642E-02 3.405E-02

     total cpu time spent up to now is     1407.2 secs

     total energy              =   -1414.91366389 Ry
     estimated scf accuracy    <       0.00000374 Ry

     total magnetization       =     2.00 Bohr mag/cell
     absolute magnetization    =     3.07 Bohr mag/cell

     iteration # 14     ecut=    58.80 Ry     beta= 0.10
     Davidson diagonalization with overlap
     ethr =  1.72E-09,  avg # of iterations =  6.0

     negative rho (up, down):  3.642E-02 3.405E-02

     total cpu time spent up to now is     1496.8 secs

     total energy              =   -1414.91369941 Ry
     estimated scf accuracy    <       0.00000284 Ry

     total magnetization       =     2.00 Bohr mag/cell
     absolute magnetization    =     3.07 Bohr mag/cell

     iteration # 15     ecut=    58.80 Ry     beta= 0.10
     Davidson diagonalization with overlap
     ethr =  1.30E-09,  avg # of iterations =  6.0

     negative rho (up, down):  3.641E-02 3.405E-02

     total cpu time spent up to now is     1590.1 secs

     total energy              =   -1414.91364312 Ry
     estimated scf accuracy    <       0.00000228 Ry

     total magnetization       =     2.00 Bohr mag/cell
     absolute magnetization    =     3.07 Bohr mag/cell

     iteration # 16     ecut=    58.80 Ry     beta= 0.10
     Davidson diagonalization with overlap
     ethr =  1.04E-09,  avg # of iterations =  7.5

     negative rho (up, down):  3.641E-02 3.405E-02

     total cpu time spent up to now is     1709.8 secs

     total energy              =   -1414.91376399 Ry
     estimated scf accuracy    <       0.00000154 Ry

     total magnetization       =     2.00 Bohr mag/cell
     absolute magnetization    =     3.07 Bohr mag/cell

     iteration # 17     ecut=    58.80 Ry     beta= 0.10
     Davidson diagonalization with overlap
     ethr =  7.07E-10,  avg # of iterations =  6.0

     negative rho (up, down):  3.641E-02 3.406E-02

     total cpu time spent up to now is     1790.4 secs

     total energy              =   -1414.91371175 Ry
     estimated scf accuracy    <       0.00000136 Ry

     total magnetization       =     2.00 Bohr mag/cell
     absolute magnetization    =     3.07 Bohr mag/cell

     iteration # 18     ecut=    58.80 Ry     beta= 0.10
     Davidson diagonalization with overlap
     ethr =  6.23E-10,  avg # of iterations =  7.0

     negative rho (up, down):  3.640E-02 3.406E-02

     Magnetic moment per site  (integrated on atomic sphere of radius R)
     atom   1 (R=0.024)  charge= 12.3095  magn=  0.7793
     atom   2 (R=0.024)  charge= 12.3096  magn=  0.7779
     atom   3 (R=0.019)  charge=  3.7709  magn=  0.0279
     atom   4 (R=0.019)  charge=  3.7721  magn=  0.0407
     atom   5 (R=0.019)  charge=  3.7690  magn= -0.0622
     atom   6 (R=0.015)  charge=  0.8141  magn= -0.0001
     atom   7 (R=0.015)  charge=  0.8130  magn=  0.0039
     atom   8 (R=0.015)  charge=  0.8163  magn=  0.0026
     atom   9 (R=0.015)  charge=  0.8600  magn=  0.0003
     atom  10 (R=0.015)  charge=  0.5000  magn=  0.0000
     atom  11 (R=0.015)  charge=  0.4962  magn= -0.0002
     atom  12 (R=0.015)  charge=  0.4964  magn=  0.0001
     atom  13 (R=0.015)  charge=  0.8567  magn=  0.0004
     atom  14 (R=0.015)  charge=  0.4953  magn=  0.0001
     atom  15 (R=0.015)  charge=  0.4973  magn=  0.0004
     atom  16 (R=0.015)  charge=  0.5005  magn= -0.0000
     atom  17 (R=0.015)  charge=  0.8565  magn=  0.0003
     atom  18 (R=0.015)  charge=  0.4968  magn=  0.0002
     atom  19 (R=0.015)  charge=  0.4970  magn= -0.0000
     atom  20 (R=0.015)  charge=  0.4969  magn=  0.0000
     atom  21 (R=0.015)  charge=  0.8565  magn= -0.0007
     atom  22 (R=0.015)  charge=  0.4981  magn= -0.0000
     atom  23 (R=0.015)  charge=  0.4980  magn= -0.0002
     atom  24 (R=0.015)  charge=  0.4977  magn=  0.0000
     atom  25 (R=0.015)  charge=  0.8568  magn=  0.0004
     atom  26 (R=0.015)  charge=  0.4968  magn=  0.0001
     atom  27 (R=0.015)  charge=  0.4981  magn=  0.0006
     atom  28 (R=0.015)  charge=  0.4982  magn= -0.0000
     atom  29 (R=0.015)  charge=  0.8585  magn=  0.0014
     atom  30 (R=0.015)  charge=  0.4980  magn= -0.0001
     atom  31 (R=0.015)  charge=  0.4979  magn= -0.0001
     atom  32 (R=0.015)  charge=  0.4967  magn= -0.0000
     atom  33 (R=0.015)  charge=  0.8605  magn=  0.0009
     atom  34 (R=0.015)  charge=  0.4984  magn=  0.0000
     atom  35 (R=0.015)  charge=  0.4962  magn=  0.0003
     atom  36 (R=0.015)  charge=  0.4988  magn= -0.0001
     atom  37 (R=0.015)  charge=  0.8566  magn= -0.0028
     atom  38 (R=0.015)  charge=  0.4977  magn=  0.0000
     atom  39 (R=0.015)  charge=  0.4975  magn= -0.0008
     atom  40 (R=0.015)  charge=  0.4992  magn=  0.0001
     atom  41 (R=0.015)  charge=  0.8561  magn= -0.0012
     atom  42 (R=0.015)  charge=  0.4977  magn=  0.0001
     atom  43 (R=0.015)  charge=  0.4976  magn= -0.0004
     atom  44 (R=0.015)  charge=  0.4980  magn=  0.0000
     atom  45 (R=0.019)  charge=  3.7708  magn=  0.0256
     atom  46 (R=0.019)  charge=  3.7720  magn=  0.0422
     atom  47 (R=0.019)  charge=  3.7690  magn= -0.0628
     atom  48 (R=0.015)  charge=  0.8140  magn= -0.0001
     atom  49 (R=0.015)  charge=  0.8130  magn=  0.0038
     atom  50 (R=0.015)  charge=  0.8164  magn=  0.0026
     atom  51 (R=0.015)  charge=  0.8600  magn=  0.0003
     atom  52 (R=0.015)  charge=  0.5000  magn=  0.0000
     atom  53 (R=0.015)  charge=  0.4963  magn= -0.0002
     atom  54 (R=0.015)  charge=  0.4964  magn=  0.0001
     atom  55 (R=0.015)  charge=  0.8568  magn=  0.0004
     atom  56 (R=0.015)  charge=  0.4953  magn=  0.0001
     atom  57 (R=0.015)  charge=  0.4973  magn=  0.0004
     atom  58 (R=0.015)  charge=  0.5005  magn= -0.0000
     atom  59 (R=0.015)  charge=  0.8566  magn=  0.0003
     atom  60 (R=0.015)  charge=  0.4968  magn=  0.0002
     atom  61 (R=0.015)  charge=  0.4970  magn= -0.0000
     atom  62 (R=0.015)  charge=  0.4969  magn=  0.0000
     atom  63 (R=0.015)  charge=  0.8565  magn= -0.0007
     atom  64 (R=0.015)  charge=  0.4981  magn= -0.0000
     atom  65 (R=0.015)  charge=  0.4980  magn= -0.0002
     atom  66 (R=0.015)  charge=  0.4977  magn=  0.0000
     atom  67 (R=0.015)  charge=  0.8569  magn=  0.0005
     atom  68 (R=0.015)  charge=  0.4968  magn=  0.0001
     atom  69 (R=0.015)  charge=  0.4981  magn=  0.0007
     atom  70 (R=0.015)  charge=  0.4982  magn= -0.0000
     atom  71 (R=0.015)  charge=  0.8585  magn=  0.0014
     atom  72 (R=0.015)  charge=  0.4980  magn= -0.0001
     atom  73 (R=0.015)  charge=  0.4979  magn= -0.0001
     atom  74 (R=0.015)  charge=  0.4967  magn= -0.0000
     atom  75 (R=0.015)  charge=  0.8605  magn=  0.0009
     atom  76 (R=0.015)  charge=  0.4985  magn=  0.0000
     atom  77 (R=0.015)  charge=  0.4963  magn=  0.0003
     atom  78 (R=0.015)  charge=  0.4988  magn= -0.0001
     atom  79 (R=0.015)  charge=  0.8566  magn= -0.0028
     atom  80 (R=0.015)  charge=  0.4977  magn=  0.0000
     atom  81 (R=0.015)  charge=  0.4975  magn= -0.0008
     atom  82 (R=0.015)  charge=  0.4992  magn=  0.0001
     atom  83 (R=0.015)  charge=  0.8563  magn= -0.0013
     atom  84 (R=0.015)  charge=  0.4978  magn=  0.0001
     atom  85 (R=0.015)  charge=  0.4976  magn= -0.0004
     atom  86 (R=0.015)  charge=  0.4980  magn=  0.0000

     total cpu time spent up to now is     1897.8 secs

     End of self-consistent calculation

     =================== HUBBARD OCCUPATIONS ===================
     ------------------------ ATOM    1 ------------------------
     Tr[ns(  1)] (up, down, total) =   3.64468  2.74452  6.38920
     Atomic magnetic moment for atom   1 =   0.90017
     SPIN  1
     eigenvalues:
       0.334  0.415  0.953  0.970  0.973
     eigenvectors (columns):
      -0.300 -0.100  0.545 -0.430  0.647
       0.705  0.276 -0.064 -0.650 -0.009
      -0.272  0.307 -0.760 -0.098  0.495
      -0.460 -0.344 -0.217 -0.616 -0.494
      -0.357  0.838  0.275 -0.054 -0.304
     occupation matrix ns (before diag.):
       0.903  0.150 -0.027 -0.106 -0.025
       0.150  0.612  0.074  0.258  0.032
      -0.027  0.074  0.861 -0.025 -0.201
      -0.106  0.258 -0.025  0.770  0.057
      -0.025  0.032 -0.201  0.057  0.498
     SPIN  2
     eigenvalues:
       0.217  0.254  0.349  0.953  0.972
     eigenvectors (columns):
       0.912 -0.306 -0.120 -0.074 -0.234
      -0.375 -0.520 -0.369  0.176 -0.649
       0.056 -0.390 -0.059  0.756  0.519
      -0.146 -0.690  0.464 -0.477  0.244
      -0.053 -0.086 -0.794 -0.405  0.441
     occupation matrix ns (before diag.):
       0.268  0.117 -0.128 -0.017 -0.042
       0.117  0.586 -0.146 -0.191 -0.229
      -0.128 -0.146  0.847 -0.163 -0.045
      -0.017 -0.191 -0.163  0.475  0.177
      -0.042 -0.229 -0.045  0.177  0.568
     ------------------------ ATOM    2 ------------------------
     Tr[ns(  2)] (up, down, total) =   3.64426  2.74552  6.38978
     Atomic magnetic moment for atom   2 =   0.89874
     SPIN  1
     eigenvalues:
       0.335  0.414  0.952  0.970  0.973
     eigenvectors (columns):
      -0.295 -0.101  0.545 -0.429  0.650
       0.693  0.286 -0.077 -0.657 -0.011
      -0.280  0.306 -0.756 -0.082  0.500
      -0.472 -0.342 -0.220 -0.612 -0.487
      -0.363  0.835  0.279 -0.048 -0.300
     occupation matrix ns (before diag.):
       0.905  0.146 -0.027 -0.106 -0.024
       0.146  0.619  0.074  0.262  0.028
      -0.027  0.074  0.859 -0.030 -0.203
      -0.106  0.262 -0.030  0.763  0.051
      -0.024  0.028 -0.203  0.051  0.498
     SPIN  2
     eigenvalues:
       0.218  0.254  0.348  0.953  0.972
     eigenvectors (columns):
       0.910 -0.307 -0.122 -0.074 -0.241
      -0.384 -0.532 -0.366  0.169 -0.638
       0.061 -0.387 -0.060  0.756  0.521
      -0.139 -0.683  0.464 -0.481  0.260
      -0.048 -0.077 -0.795 -0.403  0.443
     occupation matrix ns (before diag.):
       0.271  0.118 -0.130 -0.021 -0.045
       0.118  0.573 -0.146 -0.194 -0.224
      -0.130 -0.146  0.849 -0.159 -0.043
      -0.021 -0.194 -0.159  0.484  0.183
      -0.045 -0.224 -0.043  0.183  0.568

     Number of occupied Hubbard levels =   12.7790

 ------ SPIN UP ------------


          k = 0.0000 0.0000 0.0000 (****** PWs)   bands (ev):

   -91.7225 -91.7201 -58.2494 -58.2440 -57.7900 -57.7662 -57.3725 -57.3680
   -24.9646 -24.6787 -24.3010 -24.2818 -24.0807 -24.0743 -19.4739 -19.3211
   -19.0875 -19.0826 -18.8495 -18.8475 -16.9478 -16.9362 -16.8732 -16.8518
   -16.7909 -16.7751 -16.7191 -16.7112 -16.5560 -16.5538 -16.5206 -16.5169
   -14.0828 -13.3425 -13.3050 -13.2509 -13.0528 -13.0380 -11.8147 -11.4567
   -11.3992 -11.3454 -11.2621 -11.1472 -11.1091 -11.0254 -10.9392 -10.9324
   -10.8488 -10.8233 -10.7139 -10.6745 -10.5425 -10.5407 -10.5063 -10.4961
    -9.8182  -9.7490  -9.7036  -9.5840  -9.5584  -9.4779  -9.4199  -9.3394
    -9.3266  -9.2328  -9.2251  -9.1745  -9.1533  -9.0333  -8.9559  -8.9469
    -8.8263  -8.8189  -8.6944  -8.6750  -8.6439  -8.5727  -8.5184  -8.5055
    -8.4031  -8.3914  -8.3234  -8.3104  -8.2211  -8.1645  -8.0989  -8.0385
    -8.0099  -7.9567  -7.9148  -7.9054  -7.5453  -7.5272  -7.3759  -7.1710
    -6.9450  -6.8727  -6.6372  -6.3526  -6.3430  -6.1743  -6.0266  -5.8366
    -4.9883  -4.7151  -4.5645  -4.5090  -4.2995  -4.0963

 ------ SPIN DOWN ----------


          k = 0.0000 0.0000 0.0000 (****** PWs)   bands (ev):

   -90.6490 -90.6468 -57.1983 -57.1856 -56.8270 -56.8143 -56.2476 -56.2372
   -24.9154 -24.6287 -24.3802 -24.3609 -24.0084 -23.9995 -19.4617 -19.3082
   -19.1068 -19.1020 -18.8268 -18.8246 -16.9468 -16.9335 -16.8719 -16.8516
   -16.7929 -16.7843 -16.7186 -16.7153 -16.5536 -16.5522 -16.5161 -16.5118
   -14.0436 -13.3133 -13.2891 -13.2388 -12.9987 -12.9765 -11.7952 -11.4299
   -11.3628 -11.3247 -11.2416 -11.0835 -11.0797 -10.9550 -10.9365 -10.9288
   -10.8380 -10.8216 -10.7257 -10.6857 -10.5155 -10.5141 -10.5026 -10.4849
    -9.7982  -9.7089  -9.6934  -9.5705  -9.5400  -9.4717  -9.3903  -9.3434
    -9.3190  -9.2207  -9.2133  -9.1417  -9.1304  -8.9960  -8.9157  -8.9020
    -8.7478  -8.7369  -8.6863  -8.6728  -8.6015  -8.5347  -8.5065  -8.4854
    -8.3980  -8.3916  -8.3267  -8.2969  -8.2056  -8.1447  -8.1087  -8.0150
    -7.9440  -7.9259  -7.9078  -7.8943  -7.4712  -7.3806  -7.2282  -7.0518
    -6.8648  -6.7276  -6.6176  -6.2565  -6.1220  -6.0544  -5.9546  -5.8425
    -4.3987  -4.2708  -4.0597  -3.9822  -2.8315  -2.6568

     highest occupied, lowest unoccupied level (ev):    -3.9822   -2.8315

!    total energy              =   -1414.91379097 Ry
     total all-electron energy =     -1414.913791 Ry
     estimated scf accuracy    <       0.00000057 Ry

     The total energy is the sum of the following terms:
     one-electron contribution =   -8909.91826132 Ry
     hartree contribution      =    4438.38523673 Ry
     xc contribution           =    -236.22133526 Ry
     ewald contribution        =    3637.54572974 Ry
     Hubbard energy            =       0.02701127 Ry
     one-center paw contrib.   =    -344.73217213 Ry

     total magnetization       =     2.00 Bohr mag/cell
     absolute magnetization    =     3.06 Bohr mag/cell

     convergence has been achieved in  18 iterations

     negative rho (up, down):  3.640E-02 3.406E-02

     Forces acting on atoms (cartesian axes, Ry/au):

     atom    1 type  1   force =    -0.00684083   -0.01957155    0.00776922
     atom    2 type  1   force =     0.00705513    0.01990607   -0.00791078
     atom    3 type  2   force =     0.00379373    0.01415782    0.01198672
     atom    4 type  2   force =     0.01427904    0.00286108    0.00708684
     atom    5 type  2   force =     0.00768749    0.01049392   -0.01324833
     atom    6 type  4   force =    -0.00469666   -0.00759319   -0.00697511
     atom    7 type  4   force =    -0.00056643    0.00689087   -0.00897038
     atom    8 type  4   force =    -0.00899242   -0.00210580    0.00589627
     atom    9 type  4   force =     0.00092234   -0.00276115   -0.00027035
     atom   10 type  3   force =     0.00744377    0.00099691   -0.00248014
     atom   11 type  3   force =    -0.00349182   -0.00498755   -0.00526200
     atom   12 type  3   force =     0.00105275   -0.00344913    0.00610029
     atom   13 type  4   force =    -0.00211304   -0.00121482    0.00079213
     atom   14 type  3   force =    -0.00050711   -0.00328986    0.00701448
     atom   15 type  3   force =    -0.00377011   -0.00548012   -0.00443744
     atom   16 type  3   force =    -0.00482437    0.00618696    0.00008537
     atom   17 type  4   force =     0.00061035    0.00099416   -0.00325844
     atom   18 type  3   force =    -0.00321353    0.00602753    0.00030306
     atom   19 type  3   force =    -0.00357694   -0.00536340   -0.00529367
     atom   20 type  3   force =     0.00654976    0.00206733   -0.00279042
     atom   21 type  4   force =     0.00349230    0.00035618    0.00016097
     atom   22 type  3   force =     0.00500936    0.00215285    0.00577506
     atom   23 type  3   force =     0.00060613    0.00525783   -0.00569741
     atom   24 type  3   force =     0.00290370   -0.00671604   -0.00299772
     atom   25 type  4   force =    -0.00067458    0.00280987    0.00053958
     atom   26 type  3   force =    -0.00709785   -0.00006510    0.00267773
     atom   27 type  3   force =    -0.00001222    0.00586181   -0.00541936
     atom   28 type  3   force =     0.00442285    0.00250336    0.00590054
     atom   29 type  4   force =    -0.00171755   -0.00014843   -0.00304299
     atom   30 type  3   force =     0.00166044   -0.00685590   -0.00301857
     atom   31 type  3   force =     0.00006527    0.00525816   -0.00623267
     atom   32 type  3   force =    -0.00706886   -0.00103317    0.00178822
     atom   33 type  4   force =    -0.00107852   -0.00177526    0.00171017
     atom   34 type  3   force =     0.00075924   -0.00670034   -0.00156438
     atom   35 type  3   force =    -0.00733164    0.00055198    0.00343383
     atom   36 type  3   force =     0.00519505    0.00107104    0.00521568
     atom   37 type  4   force =    -0.00098178   -0.00143696   -0.00258363
     atom   38 type  3   force =     0.00005668    0.00472157   -0.00654737
     atom   39 type  3   force =    -0.00713512    0.00107408    0.00290977
     atom   40 type  3   force =     0.00031631   -0.00759431   -0.00284836
     atom   41 type  4   force =     0.00109850    0.00420521    0.00104590
     atom   42 type  3   force =     0.00526623    0.00205430    0.00506736
     atom   43 type  3   force =    -0.00682305    0.00126640    0.00348732
     atom   44 type  3   force =     0.00040924    0.00545207   -0.00594709
     atom   45 type  2   force =    -0.00403635   -0.01433782   -0.01197927
     atom   46 type  2   force =    -0.01397119   -0.00261014   -0.00705344
     atom   47 type  2   force =    -0.00780518   -0.01085857    0.01355855
     atom   48 type  4   force =     0.00468043    0.00769538    0.00704822
     atom   49 type  4   force =     0.00061173   -0.00694671    0.00907333
     atom   50 type  4   force =     0.00892404    0.00219085   -0.00601098
     atom   51 type  4   force =    -0.00092517    0.00277344    0.00024835
     atom   52 type  3   force =    -0.00745487   -0.00100237    0.00247940
     atom   53 type  3   force =     0.00349604    0.00499645    0.00526305
     atom   54 type  3   force =    -0.00104986    0.00343807   -0.00611456
     atom   55 type  4   force =     0.00210745    0.00121471   -0.00081002
     atom   56 type  3   force =     0.00050689    0.00328772   -0.00702833
     atom   57 type  3   force =     0.00375374    0.00546657    0.00443439
     atom   58 type  3   force =     0.00482718   -0.00617934   -0.00008374
     atom   59 type  4   force =    -0.00063284   -0.00101498    0.00326526
     atom   60 type  3   force =     0.00319778   -0.00602255   -0.00030592
     atom   61 type  3   force =     0.00357689    0.00536262    0.00527184
     atom   62 type  3   force =    -0.00653783   -0.00207485    0.00278732
     atom   63 type  4   force =    -0.00348501   -0.00035878   -0.00017851
     atom   64 type  3   force =    -0.00501634   -0.00216008   -0.00578493
     atom   65 type  3   force =    -0.00060701   -0.00526922    0.00568957
     atom   66 type  3   force =    -0.00290465    0.00671768    0.00299278
     atom   67 type  4   force =     0.00067895   -0.00279891   -0.00055340
     atom   68 type  3   force =     0.00708206    0.00006222   -0.00267578
     atom   69 type  3   force =     0.00000753   -0.00585949    0.00540598
     atom   70 type  3   force =    -0.00441452   -0.00250872   -0.00589927
     atom   71 type  4   force =     0.00171068    0.00016579    0.00302156
     atom   72 type  3   force =    -0.00165920    0.00684665    0.00300987
     atom   73 type  3   force =    -0.00007918   -0.00525854    0.00620647
     atom   74 type  3   force =     0.00705982    0.00103057   -0.00180172
     atom   75 type  4   force =     0.00109512    0.00172060   -0.00170721
     atom   76 type  3   force =    -0.00075710    0.00668047    0.00153947
     atom   77 type  3   force =     0.00732655   -0.00054383   -0.00344131
     atom   78 type  3   force =    -0.00518326   -0.00106567   -0.00521383
     atom   79 type  4   force =     0.00095219    0.00142011    0.00258208
     atom   80 type  3   force =    -0.00005662   -0.00472552    0.00653685
     atom   81 type  3   force =     0.00712253   -0.00107754   -0.00292127
     atom   82 type  3   force =    -0.00032115    0.00756985    0.00283489
     atom   83 type  4   force =    -0.00111025   -0.00422733   -0.00099611
     atom   84 type  3   force =    -0.00526331   -0.00205466   -0.00507625
     atom   85 type  3   force =     0.00682285   -0.00126057   -0.00349677
     atom   86 type  3   force =    -0.00041079   -0.00546081    0.00593351

     Total force =     0.084542     Total SCF correction =     0.000932


     Computing stress (Cartesian axis) and pressure


     negative rho (up, down):  3.640E-02 3.406E-02
